NAME: sim-grid-A-60
TYPE: TSP
COMMENT: Semi-regular Grid
DIMENSION: 60
EDGE_WEIGHT_TYPE: EUC_2D
NODE_COORD_SECTION
1 100 100
2 200 100
3 350 100
4 450 100
5 700 100
6 850 100
7 950 100
8 1100 100
9 1200 100
10 1350 100
11 1450 100
12 100 200
13 200 200
14 350 200
15 450 200
16 600 200
17 700 200
18 850 200
19 950 200
20 1100 200
21 1200 200
22 1350 200
23 1450 200
24 100 350
25 200 350
26 400 350
27 500 350
28 700 350
29 800 350
30 1000 350
31 1100 350
32 1300 350
33 1400 350
34 100 450
35 200 450
36 400 450
37 500 450
38 700 450
39 800 450
40 1000 450
41 1100 450
42 1300 450
43 1400 450
44 50 600
45 400 600
46 600 600
47 750 600
48 950 600
49 1100 600
50 1300 600
51 1450 600
52 50 700
53 250 700
54 400 700
55 600 700
56 750 700
57 950 700
58 1100 700
59 1300 700
60 1450 700
EOF
